
Gurobi 9.5.2 (mac64[x86]) logging started Wed Mar 22 20:08:28 2023

Set parameter LogFile to value "logFiles/A-2L-60D/A-2L-6U-11F-7V-60D-a-charterout.log"
Gurobi Optimizer version 9.5.2 build v9.5.2rc0 (mac64[x86])
Thread count: 4 physical cores, 8 logical processors, using up to 8 threads
Optimize a model with 7873 rows, 49427 columns and 451674 nonzeros
Model fingerprint: 0x07d176ef
Variable types: 620 continuous, 48807 integer (48807 binary)
Coefficient statistics:
  Matrix range     [1e+00, 2e+05]
  Objective range  [4e+01, 2e+07]
  Bounds range     [1e+00, 1e+00]
  RHS range        [1e+00, 5e+05]
Presolve removed 5265 rows and 11076 columns
Presolve time: 1.06s
Presolved: 2608 rows, 38351 columns, 234475 nonzeros
Variable types: 594 continuous, 37757 integer (37753 binary)

Root relaxation: objective 2.123040e+08, 8606 iterations, 1.38 seconds (1.94 work units)

    Nodes    |    Current Node    |     Objective Bounds      |     Work
 Expl Unexpl |  Obj  Depth IntInf | Incumbent    BestBd   Gap | It/Node Time

     0     0 2.1230e+08    0   96          - 2.1230e+08      -     -    2s
     0     0 2.1228e+08    0  115          - 2.1228e+08      -     -    4s
H    0     0                    2.017251e+08 2.1228e+08  5.23%     -    5s
H    0     0                    2.025170e+08 2.1228e+08  4.82%     -   10s
     0     0 2.1204e+08    0   79 2.0252e+08 2.1204e+08  4.70%     -   10s
     0     0 2.1204e+08    0   76 2.0252e+08 2.1204e+08  4.70%     -   10s
     0     0 2.1204e+08    0   71 2.0252e+08 2.1204e+08  4.70%     -   11s
     0     0 2.1204e+08    0   74 2.0252e+08 2.1204e+08  4.70%     -   11s
     0     0 2.1203e+08    0   82 2.0252e+08 2.1203e+08  4.70%     -   11s
     0     0 2.1203e+08    0   83 2.0252e+08 2.1203e+08  4.70%     -   12s
     0     0 2.1203e+08    0   86 2.0252e+08 2.1203e+08  4.70%     -   12s
     0     0 2.1203e+08    0   88 2.0252e+08 2.1203e+08  4.70%     -   12s
     0     0 2.1203e+08    0   90 2.0252e+08 2.1203e+08  4.70%     -   12s
     0     0 2.1203e+08    0   91 2.0252e+08 2.1203e+08  4.70%     -   12s
     0     0 2.1203e+08    0  114 2.0252e+08 2.1203e+08  4.70%     -   12s
     0     0 2.1203e+08    0  114 2.0252e+08 2.1203e+08  4.70%     -   13s
     0     0 2.1203e+08    0  118 2.0252e+08 2.1203e+08  4.70%     -   13s
     0     0 2.1203e+08    0  118 2.0252e+08 2.1203e+08  4.70%     -   13s
     0     0 2.1203e+08    0  114 2.0252e+08 2.1203e+08  4.70%     -   13s
     0     0 2.1203e+08    0  116 2.0252e+08 2.1203e+08  4.70%     -   13s
     0     0 2.1203e+08    0  119 2.0252e+08 2.1203e+08  4.70%     -   13s
     0     0 2.1203e+08    0  119 2.0252e+08 2.1203e+08  4.70%     -   15s
     0     0 2.1203e+08    0   89 2.0252e+08 2.1203e+08  4.70%     -   17s
H    0     0                    2.025173e+08 2.1203e+08  4.69%     -   21s
     0     0 2.1203e+08    0  109 2.0252e+08 2.1203e+08  4.69%     -   21s
     0     0 2.1178e+08    0  111 2.0252e+08 2.1178e+08  4.57%     -   25s
     0     0 2.1178e+08    0  119 2.0252e+08 2.1178e+08  4.57%     -   25s
     0     0 2.1178e+08    0  120 2.0252e+08 2.1178e+08  4.57%     -   25s
     0     0 2.1177e+08    0  105 2.0252e+08 2.1177e+08  4.57%     -   26s
     0     0 2.1177e+08    0  112 2.0252e+08 2.1177e+08  4.57%     -   26s
     0     0 2.1177e+08    0  114 2.0252e+08 2.1177e+08  4.57%     -   26s
     0     0 2.1177e+08    0  108 2.0252e+08 2.1177e+08  4.57%     -   27s
     0     0 2.1177e+08    0  106 2.0252e+08 2.1177e+08  4.57%     -   27s
     0     0 2.1177e+08    0  104 2.0252e+08 2.1177e+08  4.57%     -   27s
     0     0 2.1177e+08    0  104 2.0252e+08 2.1177e+08  4.57%     -   27s
     0     0 2.1177e+08    0  117 2.0252e+08 2.1177e+08  4.57%     -   27s
     0     0 2.1177e+08    0  120 2.0252e+08 2.1177e+08  4.57%     -   27s
     0     0 2.1177e+08    0  124 2.0252e+08 2.1177e+08  4.57%     -   27s
     0     0 2.1177e+08    0  115 2.0252e+08 2.1177e+08  4.57%     -   28s
     0     0 2.1177e+08    0  117 2.0252e+08 2.1177e+08  4.57%     -   28s
     0     0 2.1177e+08    0  119 2.0252e+08 2.1177e+08  4.57%     -   28s
     0     0 2.1177e+08    0  120 2.0252e+08 2.1177e+08  4.57%     -   28s
     0     0 2.1177e+08    0  113 2.0252e+08 2.1177e+08  4.57%     -   28s
     0     0 2.1177e+08    0  119 2.0252e+08 2.1177e+08  4.57%     -   28s
     0     0 2.1177e+08    0  120 2.0252e+08 2.1177e+08  4.57%     -   28s
     0     0 2.1177e+08    0  114 2.0252e+08 2.1177e+08  4.57%     -   29s
     0     2 2.1177e+08    0  114 2.0252e+08 2.1177e+08  4.57%     -   30s
    60    70 2.1177e+08   13   64 2.0252e+08 2.1177e+08  4.57%   112   35s
   141   155 2.1177e+08   28   70 2.0252e+08 2.1177e+08  4.57%  96.4   40s
H  147   155                    2.029770e+08 2.1177e+08  4.33%  93.7   40s
   458   463 2.1153e+08   83   50 2.0298e+08 2.1177e+08  4.33%  65.6   45s
   576   588 2.1151e+08  109   42 2.0298e+08 2.1177e+08  4.33%  58.8   54s
H  619   588                    2.040431e+08 2.1177e+08  3.79%  55.8   54s
   663   675 2.1148e+08  125   52 2.0404e+08 2.1177e+08  3.79%  54.8   55s
H  982   916                    2.040938e+08 2.1177e+08  3.76%  51.2   58s
  1069  1073 2.1131e+08  214   43 2.0409e+08 2.1177e+08  3.76%  48.4   60s
  1644  1559 2.1109e+08  342   47 2.0409e+08 2.1177e+08  3.76%  42.0   65s
  2377  2304 2.0943e+08  573   32 2.0409e+08 2.1177e+08  3.76%  32.4   70s
  3218  2987 2.0899e+08  856   19 2.0409e+08 2.1177e+08  3.76%  25.5   75s
  4589  4005 2.0675e+08 1295   17 2.0409e+08 2.1177e+08  3.76%  19.3   80s
  5178  4138 2.1045e+08  162  119 2.0409e+08 2.1177e+08  3.76%  18.1   95s
  5181  4140 2.1133e+08  810   79 2.0409e+08 2.1177e+08  3.76%  18.1  102s
H 5181  3932                    2.061064e+08 2.1177e+08  2.75%  18.1  103s
  5186  3935 2.1127e+08  663   83 2.0611e+08 2.1156e+08  2.65%  18.1  105s
  5195  3941 2.1023e+08  405   95 2.0611e+08 2.1151e+08  2.62%  18.1  113s
  5196  3945 2.1151e+08   13   96 2.0611e+08 2.1151e+08  2.62%  20.6  117s
  5198  3946 2.1151e+08   14   98 2.0611e+08 2.1151e+08  2.62%  20.6  120s
  5226  3965 2.1148e+08   18   76 2.0611e+08 2.1151e+08  2.62%  21.5  134s
H 5227  3768                    2.065741e+08 2.1151e+08  2.39%  21.5  135s
  5230  3770 infeasible   19      2.0657e+08 2.1151e+08  2.39%  22.5  144s
  5235  3772 infeasible   19      2.0657e+08 2.1151e+08  2.39%  24.2  155s
  5241  3778 infeasible   19      2.0657e+08 2.1151e+08  2.39%  26.3  161s
  5259  3791 2.1151e+08   18  110 2.0657e+08 2.1151e+08  2.39%  26.9  167s
  5278  3828 2.1150e+08   19   88 2.0657e+08 2.1151e+08  2.39%  27.9  174s
H 5323  3664                    2.065746e+08 2.1151e+08  2.39%  29.9  179s
H 5351  3475                    2.065746e+08 2.1151e+08  2.39%  31.1  179s
  5364  3481 2.1150e+08   26  102 2.0657e+08 2.1151e+08  2.39%  31.3  180s

Cutting planes:
  Gomory: 2
  Lift-and-project: 1
  Cover: 19
  Implied bound: 3
  Clique: 2
  MIR: 6
  Flow cover: 13
  GUB cover: 1
  Zero half: 9
  Relax-and-lift: 16

Explored 5376 nodes (192237 simplex iterations) in 180.02 seconds (345.59 work units)
Thread count was 8 (of 8 available processors)

Solution count 10: 2.06575e+08 2.06575e+08 2.06574e+08 ... 2.01725e+08

Time limit reached
Best objective 2.065746121125e+08, best bound 2.115050009158e+08, gap 2.3867%
